(set-logic QF_LRA)
(declare-fun T1 () Real )
(declare-fun T2 () Real )
(declare-fun T3 () Real )
(declare-fun T4 () Real )
(declare-fun T5 () Real )
(declare-fun T6 () Real )
(declare-fun T7 () Real )
(declare-fun T8 () Real )
(declare-fun Z () Real )
(declare-fun k () Real )
(assert (let
(( $goal (>= Z k) ))
(let
((
$phi ( and 
(or ( <= ( + T1 47 ) T2 ) ( <= ( + T2 91 ) T1 ) )
(or ( <= ( + T1 69 )  ( + T2 91 ) ) ( <= ( + T2 166 )( + T1 47 ) ) )
(or ( <= ( + T1 129 )  ( + T2 166 ) ) ( <= ( + T2 244 )( + T1 69 ) ) )
(or ( <= ( + T1 178 )  ( + T2 244 ) ) ( <= ( + T2 296 )( + T1 129 ) ) )
(or ( <= ( + T1 185 )  ( + T2 296 ) ) ( <= ( + T2 301 )( + T1 178 ) ) )
(or ( <= ( + T1 251 )  ( + T2 301 ) ) ( <= ( + T2 331 )( + T1 185 ) ) )
(or ( <= ( + T1 280 )  ( + T2 331 ) ) ( <= ( + T2 353 )( + T1 251 ) ) )
(or ( <= ( + T1 303 )  ( + T2 353 ) ) ( <= ( + T2 420 )( + T1 280 ) ) )
(or ( <= ( + T1 373 )  ( + T2 420 ) ) ( <= ( + T2 469 )( + T1 303 ) ) )
(or ( <= ( + T1 457 )  ( + T2 469 ) ) ( <= ( + T2 502 )( + T1 373 ) ) )
(or ( <= ( + T1 47 ) T3 ) ( <= ( + T3 4 ) T1 ) )
(or ( <= ( + T1 69 )  ( + T3 4 ) ) ( <= ( + T3 81 )( + T1 47 ) ) )
(or ( <= ( + T1 129 )  ( + T3 81 ) ) ( <= ( + T3 90 )( + T1 69 ) ) )
(or ( <= ( + T1 178 )  ( + T3 90 ) ) ( <= ( + T3 107 )( + T1 129 ) ) )
(or ( <= ( + T1 185 )  ( + T3 107 ) ) ( <= ( + T3 203 )( + T1 178 ) ) )
(or ( <= ( + T1 251 )  ( + T3 203 ) ) ( <= ( + T3 228 )( + T1 185 ) ) )
(or ( <= ( + T1 280 )  ( + T3 228 ) ) ( <= ( + T3 313 )( + T1 251 ) ) )
(or ( <= ( + T1 303 )  ( + T3 313 ) ) ( <= ( + T3 413 )( + T1 280 ) ) )
(or ( <= ( + T1 373 )  ( + T3 413 ) ) ( <= ( + T3 472 )( + T1 303 ) ) )
(or ( <= ( + T1 457 )  ( + T3 472 ) ) ( <= ( + T3 490 )( + T1 373 ) ) )
(or ( <= ( + T1 47 ) T4 ) ( <= ( + T4 86 ) T1 ) )
(or ( <= ( + T1 69 )  ( + T4 86 ) ) ( <= ( + T4 92 )( + T1 47 ) ) )
(or ( <= ( + T1 129 )  ( + T4 92 ) ) ( <= ( + T4 183 )( + T1 69 ) ) )
(or ( <= ( + T1 178 )  ( + T4 183 ) ) ( <= ( + T4 228 )( + T1 129 ) ) )
(or ( <= ( + T1 185 )  ( + T4 228 ) ) ( <= ( + T4 234 )( + T1 178 ) ) )
(or ( <= ( + T1 251 )  ( + T4 234 ) ) ( <= ( + T4 331 )( + T1 185 ) ) )
(or ( <= ( + T1 280 )  ( + T4 331 ) ) ( <= ( + T4 393 )( + T1 251 ) ) )
(or ( <= ( + T1 303 )  ( + T4 393 ) ) ( <= ( + T4 427 )( + T1 280 ) ) )
(or ( <= ( + T1 373 )  ( + T4 427 ) ) ( <= ( + T4 499 )( + T1 303 ) ) )
(or ( <= ( + T1 457 )  ( + T4 499 ) ) ( <= ( + T4 582 )( + T1 373 ) ) )
(or ( <= ( + T1 47 ) T5 ) ( <= ( + T5 70 ) T1 ) )
(or ( <= ( + T1 69 )  ( + T5 70 ) ) ( <= ( + T5 132 )( + T1 47 ) ) )
(or ( <= ( + T1 129 )  ( + T5 132 ) ) ( <= ( + T5 190 )( + T1 69 ) ) )
(or ( <= ( + T1 178 )  ( + T5 190 ) ) ( <= ( + T5 237 )( + T1 129 ) ) )
(or ( <= ( + T1 185 )  ( + T5 237 ) ) ( <= ( + T5 302 )( + T1 178 ) ) )
(or ( <= ( + T1 251 )  ( + T5 302 ) ) ( <= ( + T5 316 )( + T1 185 ) ) )
(or ( <= ( + T1 280 )  ( + T5 316 ) ) ( <= ( + T5 392 )( + T1 251 ) ) )
(or ( <= ( + T1 303 )  ( + T5 392 ) ) ( <= ( + T5 431 )( + T1 280 ) ) )
(or ( <= ( + T1 373 )  ( + T5 431 ) ) ( <= ( + T5 511 )( + T1 303 ) ) )
(or ( <= ( + T1 457 )  ( + T5 511 ) ) ( <= ( + T5 587 )( + T1 373 ) ) )
(or ( <= ( + T1 47 ) T6 ) ( <= ( + T6 71 ) T1 ) )
(or ( <= ( + T1 69 )  ( + T6 71 ) ) ( <= ( + T6 106 )( + T1 47 ) ) )
(or ( <= ( + T1 129 )  ( + T6 106 ) ) ( <= ( + T6 110 )( + T1 69 ) ) )
(or ( <= ( + T1 178 )  ( + T6 110 ) ) ( <= ( + T6 189 )( + T1 129 ) ) )
(or ( <= ( + T1 185 )  ( + T6 189 ) ) ( <= ( + T6 192 )( + T1 178 ) ) )
(or ( <= ( + T1 251 )  ( + T6 192 ) ) ( <= ( + T6 243 )( + T1 185 ) ) )
(or ( <= ( + T1 280 )  ( + T6 243 ) ) ( <= ( + T6 298 )( + T1 251 ) ) )
(or ( <= ( + T1 303 )  ( + T6 298 ) ) ( <= ( + T6 385 )( + T1 280 ) ) )
(or ( <= ( + T1 373 )  ( + T6 385 ) ) ( <= ( + T6 435 )( + T1 303 ) ) )
(or ( <= ( + T1 457 )  ( + T6 435 ) ) ( <= ( + T6 448 )( + T1 373 ) ) )
(or ( <= ( + T1 47 ) T7 ) ( <= ( + T7 56 ) T1 ) )
(or ( <= ( + T1 69 )  ( + T7 56 ) ) ( <= ( + T7 143 )( + T1 47 ) ) )
(or ( <= ( + T1 129 )  ( + T7 143 ) ) ( <= ( + T7 213 )( + T1 69 ) ) )
(or ( <= ( + T1 178 )  ( + T7 213 ) ) ( <= ( + T7 259 )( + T1 129 ) ) )
(or ( <= ( + T1 185 )  ( + T7 259 ) ) ( <= ( + T7 290 )( + T1 178 ) ) )
(or ( <= ( + T1 251 )  ( + T7 290 ) ) ( <= ( + T7 365 )( + T1 185 ) ) )
(or ( <= ( + T1 280 )  ( + T7 365 ) ) ( <= ( + T7 408 )( + T1 251 ) ) )
(or ( <= ( + T1 303 )  ( + T7 408 ) ) ( <= ( + T7 452 )( + T1 280 ) ) )
(or ( <= ( + T1 373 )  ( + T7 452 ) ) ( <= ( + T7 461 )( + T1 303 ) ) )
(or ( <= ( + T1 457 )  ( + T7 461 ) ) ( <= ( + T7 475 )( + T1 373 ) ) )
(or ( <= ( + T1 47 ) T8 ) ( <= ( + T8 27 ) T1 ) )
(or ( <= ( + T1 69 )  ( + T8 27 ) ) ( <= ( + T8 57 )( + T1 47 ) ) )
(or ( <= ( + T1 129 )  ( + T8 57 ) ) ( <= ( + T8 84 )( + T1 69 ) ) )
(or ( <= ( + T1 178 )  ( + T8 84 ) ) ( <= ( + T8 120 )( + T1 129 ) ) )
(or ( <= ( + T1 185 )  ( + T8 120 ) ) ( <= ( + T8 196 )( + T1 178 ) ) )
(or ( <= ( + T1 251 )  ( + T8 196 ) ) ( <= ( + T8 288 )( + T1 185 ) ) )
(or ( <= ( + T1 280 )  ( + T8 288 ) ) ( <= ( + T8 337 )( + T1 251 ) ) )
(or ( <= ( + T1 303 )  ( + T8 337 ) ) ( <= ( + T8 341 )( + T1 280 ) ) )
(or ( <= ( + T1 373 )  ( + T8 341 ) ) ( <= ( + T8 371 )( + T1 303 ) ) )
(or ( <= ( + T1 457 )  ( + T8 371 ) ) ( <= ( + T8 451 )( + T1 373 ) ) )
(or ( <= ( + T2 91 ) T3 ) ( <= ( + T3 4 ) T2 ) )
(or ( <= ( + T2 166 )  ( + T3 4 ) ) ( <= ( + T3 81 )( + T2 91 ) ) )
(or ( <= ( + T2 244 )  ( + T3 81 ) ) ( <= ( + T3 90 )( + T2 166 ) ) )
(or ( <= ( + T2 296 )  ( + T3 90 ) ) ( <= ( + T3 107 )( + T2 244 ) ) )
(or ( <= ( + T2 301 )  ( + T3 107 ) ) ( <= ( + T3 203 )( + T2 296 ) ) )
(or ( <= ( + T2 331 )  ( + T3 203 ) ) ( <= ( + T3 228 )( + T2 301 ) ) )
(or ( <= ( + T2 353 )  ( + T3 228 ) ) ( <= ( + T3 313 )( + T2 331 ) ) )
(or ( <= ( + T2 420 )  ( + T3 313 ) ) ( <= ( + T3 413 )( + T2 353 ) ) )
(or ( <= ( + T2 469 )  ( + T3 413 ) ) ( <= ( + T3 472 )( + T2 420 ) ) )
(or ( <= ( + T2 502 )  ( + T3 472 ) ) ( <= ( + T3 490 )( + T2 469 ) ) )
(or ( <= ( + T2 91 ) T4 ) ( <= ( + T4 86 ) T2 ) )
(or ( <= ( + T2 166 )  ( + T4 86 ) ) ( <= ( + T4 92 )( + T2 91 ) ) )
(or ( <= ( + T2 244 )  ( + T4 92 ) ) ( <= ( + T4 183 )( + T2 166 ) ) )
(or ( <= ( + T2 296 )  ( + T4 183 ) ) ( <= ( + T4 228 )( + T2 244 ) ) )
(or ( <= ( + T2 301 )  ( + T4 228 ) ) ( <= ( + T4 234 )( + T2 296 ) ) )
(or ( <= ( + T2 331 )  ( + T4 234 ) ) ( <= ( + T4 331 )( + T2 301 ) ) )
(or ( <= ( + T2 353 )  ( + T4 331 ) ) ( <= ( + T4 393 )( + T2 331 ) ) )
(or ( <= ( + T2 420 )  ( + T4 393 ) ) ( <= ( + T4 427 )( + T2 353 ) ) )
(or ( <= ( + T2 469 )  ( + T4 427 ) ) ( <= ( + T4 499 )( + T2 420 ) ) )
(or ( <= ( + T2 502 )  ( + T4 499 ) ) ( <= ( + T4 582 )( + T2 469 ) ) )
(or ( <= ( + T2 91 ) T5 ) ( <= ( + T5 70 ) T2 ) )
(or ( <= ( + T2 166 )  ( + T5 70 ) ) ( <= ( + T5 132 )( + T2 91 ) ) )
(or ( <= ( + T2 244 )  ( + T5 132 ) ) ( <= ( + T5 190 )( + T2 166 ) ) )
(or ( <= ( + T2 296 )  ( + T5 190 ) ) ( <= ( + T5 237 )( + T2 244 ) ) )
(or ( <= ( + T2 301 )  ( + T5 237 ) ) ( <= ( + T5 302 )( + T2 296 ) ) )
(or ( <= ( + T2 331 )  ( + T5 302 ) ) ( <= ( + T5 316 )( + T2 301 ) ) )
(or ( <= ( + T2 353 )  ( + T5 316 ) ) ( <= ( + T5 392 )( + T2 331 ) ) )
(or ( <= ( + T2 420 )  ( + T5 392 ) ) ( <= ( + T5 431 )( + T2 353 ) ) )
(or ( <= ( + T2 469 )  ( + T5 431 ) ) ( <= ( + T5 511 )( + T2 420 ) ) )
(or ( <= ( + T2 502 )  ( + T5 511 ) ) ( <= ( + T5 587 )( + T2 469 ) ) )
(or ( <= ( + T2 91 ) T6 ) ( <= ( + T6 71 ) T2 ) )
(or ( <= ( + T2 166 )  ( + T6 71 ) ) ( <= ( + T6 106 )( + T2 91 ) ) )
(or ( <= ( + T2 244 )  ( + T6 106 ) ) ( <= ( + T6 110 )( + T2 166 ) ) )
(or ( <= ( + T2 296 )  ( + T6 110 ) ) ( <= ( + T6 189 )( + T2 244 ) ) )
(or ( <= ( + T2 301 )  ( + T6 189 ) ) ( <= ( + T6 192 )( + T2 296 ) ) )
(or ( <= ( + T2 331 )  ( + T6 192 ) ) ( <= ( + T6 243 )( + T2 301 ) ) )
(or ( <= ( + T2 353 )  ( + T6 243 ) ) ( <= ( + T6 298 )( + T2 331 ) ) )
(or ( <= ( + T2 420 )  ( + T6 298 ) ) ( <= ( + T6 385 )( + T2 353 ) ) )
(or ( <= ( + T2 469 )  ( + T6 385 ) ) ( <= ( + T6 435 )( + T2 420 ) ) )
(or ( <= ( + T2 502 )  ( + T6 435 ) ) ( <= ( + T6 448 )( + T2 469 ) ) )
(or ( <= ( + T2 91 ) T7 ) ( <= ( + T7 56 ) T2 ) )
(or ( <= ( + T2 166 )  ( + T7 56 ) ) ( <= ( + T7 143 )( + T2 91 ) ) )
(or ( <= ( + T2 244 )  ( + T7 143 ) ) ( <= ( + T7 213 )( + T2 166 ) ) )
(or ( <= ( + T2 296 )  ( + T7 213 ) ) ( <= ( + T7 259 )( + T2 244 ) ) )
(or ( <= ( + T2 301 )  ( + T7 259 ) ) ( <= ( + T7 290 )( + T2 296 ) ) )
(or ( <= ( + T2 331 )  ( + T7 290 ) ) ( <= ( + T7 365 )( + T2 301 ) ) )
(or ( <= ( + T2 353 )  ( + T7 365 ) ) ( <= ( + T7 408 )( + T2 331 ) ) )
(or ( <= ( + T2 420 )  ( + T7 408 ) ) ( <= ( + T7 452 )( + T2 353 ) ) )
(or ( <= ( + T2 469 )  ( + T7 452 ) ) ( <= ( + T7 461 )( + T2 420 ) ) )
(or ( <= ( + T2 502 )  ( + T7 461 ) ) ( <= ( + T7 475 )( + T2 469 ) ) )
(or ( <= ( + T2 91 ) T8 ) ( <= ( + T8 27 ) T2 ) )
(or ( <= ( + T2 166 )  ( + T8 27 ) ) ( <= ( + T8 57 )( + T2 91 ) ) )
(or ( <= ( + T2 244 )  ( + T8 57 ) ) ( <= ( + T8 84 )( + T2 166 ) ) )
(or ( <= ( + T2 296 )  ( + T8 84 ) ) ( <= ( + T8 120 )( + T2 244 ) ) )
(or ( <= ( + T2 301 )  ( + T8 120 ) ) ( <= ( + T8 196 )( + T2 296 ) ) )
(or ( <= ( + T2 331 )  ( + T8 196 ) ) ( <= ( + T8 288 )( + T2 301 ) ) )
(or ( <= ( + T2 353 )  ( + T8 288 ) ) ( <= ( + T8 337 )( + T2 331 ) ) )
(or ( <= ( + T2 420 )  ( + T8 337 ) ) ( <= ( + T8 341 )( + T2 353 ) ) )
(or ( <= ( + T2 469 )  ( + T8 341 ) ) ( <= ( + T8 371 )( + T2 420 ) ) )
(or ( <= ( + T2 502 )  ( + T8 371 ) ) ( <= ( + T8 451 )( + T2 469 ) ) )
(or ( <= ( + T3 4 ) T4 ) ( <= ( + T4 86 ) T3 ) )
(or ( <= ( + T3 81 )  ( + T4 86 ) ) ( <= ( + T4 92 )( + T3 4 ) ) )
(or ( <= ( + T3 90 )  ( + T4 92 ) ) ( <= ( + T4 183 )( + T3 81 ) ) )
(or ( <= ( + T3 107 )  ( + T4 183 ) ) ( <= ( + T4 228 )( + T3 90 ) ) )
(or ( <= ( + T3 203 )  ( + T4 228 ) ) ( <= ( + T4 234 )( + T3 107 ) ) )
(or ( <= ( + T3 228 )  ( + T4 234 ) ) ( <= ( + T4 331 )( + T3 203 ) ) )
(or ( <= ( + T3 313 )  ( + T4 331 ) ) ( <= ( + T4 393 )( + T3 228 ) ) )
(or ( <= ( + T3 413 )  ( + T4 393 ) ) ( <= ( + T4 427 )( + T3 313 ) ) )
(or ( <= ( + T3 472 )  ( + T4 427 ) ) ( <= ( + T4 499 )( + T3 413 ) ) )
(or ( <= ( + T3 490 )  ( + T4 499 ) ) ( <= ( + T4 582 )( + T3 472 ) ) )
(or ( <= ( + T3 4 ) T5 ) ( <= ( + T5 70 ) T3 ) )
(or ( <= ( + T3 81 )  ( + T5 70 ) ) ( <= ( + T5 132 )( + T3 4 ) ) )
(or ( <= ( + T3 90 )  ( + T5 132 ) ) ( <= ( + T5 190 )( + T3 81 ) ) )
(or ( <= ( + T3 107 )  ( + T5 190 ) ) ( <= ( + T5 237 )( + T3 90 ) ) )
(or ( <= ( + T3 203 )  ( + T5 237 ) ) ( <= ( + T5 302 )( + T3 107 ) ) )
(or ( <= ( + T3 228 )  ( + T5 302 ) ) ( <= ( + T5 316 )( + T3 203 ) ) )
(or ( <= ( + T3 313 )  ( + T5 316 ) ) ( <= ( + T5 392 )( + T3 228 ) ) )
(or ( <= ( + T3 413 )  ( + T5 392 ) ) ( <= ( + T5 431 )( + T3 313 ) ) )
(or ( <= ( + T3 472 )  ( + T5 431 ) ) ( <= ( + T5 511 )( + T3 413 ) ) )
(or ( <= ( + T3 490 )  ( + T5 511 ) ) ( <= ( + T5 587 )( + T3 472 ) ) )
(or ( <= ( + T3 4 ) T6 ) ( <= ( + T6 71 ) T3 ) )
(or ( <= ( + T3 81 )  ( + T6 71 ) ) ( <= ( + T6 106 )( + T3 4 ) ) )
(or ( <= ( + T3 90 )  ( + T6 106 ) ) ( <= ( + T6 110 )( + T3 81 ) ) )
(or ( <= ( + T3 107 )  ( + T6 110 ) ) ( <= ( + T6 189 )( + T3 90 ) ) )
(or ( <= ( + T3 203 )  ( + T6 189 ) ) ( <= ( + T6 192 )( + T3 107 ) ) )
(or ( <= ( + T3 228 )  ( + T6 192 ) ) ( <= ( + T6 243 )( + T3 203 ) ) )
(or ( <= ( + T3 313 )  ( + T6 243 ) ) ( <= ( + T6 298 )( + T3 228 ) ) )
(or ( <= ( + T3 413 )  ( + T6 298 ) ) ( <= ( + T6 385 )( + T3 313 ) ) )
(or ( <= ( + T3 472 )  ( + T6 385 ) ) ( <= ( + T6 435 )( + T3 413 ) ) )
(or ( <= ( + T3 490 )  ( + T6 435 ) ) ( <= ( + T6 448 )( + T3 472 ) ) )
(or ( <= ( + T3 4 ) T7 ) ( <= ( + T7 56 ) T3 ) )
(or ( <= ( + T3 81 )  ( + T7 56 ) ) ( <= ( + T7 143 )( + T3 4 ) ) )
(or ( <= ( + T3 90 )  ( + T7 143 ) ) ( <= ( + T7 213 )( + T3 81 ) ) )
(or ( <= ( + T3 107 )  ( + T7 213 ) ) ( <= ( + T7 259 )( + T3 90 ) ) )
(or ( <= ( + T3 203 )  ( + T7 259 ) ) ( <= ( + T7 290 )( + T3 107 ) ) )
(or ( <= ( + T3 228 )  ( + T7 290 ) ) ( <= ( + T7 365 )( + T3 203 ) ) )
(or ( <= ( + T3 313 )  ( + T7 365 ) ) ( <= ( + T7 408 )( + T3 228 ) ) )
(or ( <= ( + T3 413 )  ( + T7 408 ) ) ( <= ( + T7 452 )( + T3 313 ) ) )
(or ( <= ( + T3 472 )  ( + T7 452 ) ) ( <= ( + T7 461 )( + T3 413 ) ) )
(or ( <= ( + T3 490 )  ( + T7 461 ) ) ( <= ( + T7 475 )( + T3 472 ) ) )
(or ( <= ( + T3 4 ) T8 ) ( <= ( + T8 27 ) T3 ) )
(or ( <= ( + T3 81 )  ( + T8 27 ) ) ( <= ( + T8 57 )( + T3 4 ) ) )
(or ( <= ( + T3 90 )  ( + T8 57 ) ) ( <= ( + T8 84 )( + T3 81 ) ) )
(or ( <= ( + T3 107 )  ( + T8 84 ) ) ( <= ( + T8 120 )( + T3 90 ) ) )
(or ( <= ( + T3 203 )  ( + T8 120 ) ) ( <= ( + T8 196 )( + T3 107 ) ) )
(or ( <= ( + T3 228 )  ( + T8 196 ) ) ( <= ( + T8 288 )( + T3 203 ) ) )
(or ( <= ( + T3 313 )  ( + T8 288 ) ) ( <= ( + T8 337 )( + T3 228 ) ) )
(or ( <= ( + T3 413 )  ( + T8 337 ) ) ( <= ( + T8 341 )( + T3 313 ) ) )
(or ( <= ( + T3 472 )  ( + T8 341 ) ) ( <= ( + T8 371 )( + T3 413 ) ) )
(or ( <= ( + T3 490 )  ( + T8 371 ) ) ( <= ( + T8 451 )( + T3 472 ) ) )
(or ( <= ( + T4 86 ) T5 ) ( <= ( + T5 70 ) T4 ) )
(or ( <= ( + T4 92 )  ( + T5 70 ) ) ( <= ( + T5 132 )( + T4 86 ) ) )
(or ( <= ( + T4 183 )  ( + T5 132 ) ) ( <= ( + T5 190 )( + T4 92 ) ) )
(or ( <= ( + T4 228 )  ( + T5 190 ) ) ( <= ( + T5 237 )( + T4 183 ) ) )
(or ( <= ( + T4 234 )  ( + T5 237 ) ) ( <= ( + T5 302 )( + T4 228 ) ) )
(or ( <= ( + T4 331 )  ( + T5 302 ) ) ( <= ( + T5 316 )( + T4 234 ) ) )
(or ( <= ( + T4 393 )  ( + T5 316 ) ) ( <= ( + T5 392 )( + T4 331 ) ) )
(or ( <= ( + T4 427 )  ( + T5 392 ) ) ( <= ( + T5 431 )( + T4 393 ) ) )
(or ( <= ( + T4 499 )  ( + T5 431 ) ) ( <= ( + T5 511 )( + T4 427 ) ) )
(or ( <= ( + T4 582 )  ( + T5 511 ) ) ( <= ( + T5 587 )( + T4 499 ) ) )
(or ( <= ( + T4 86 ) T6 ) ( <= ( + T6 71 ) T4 ) )
(or ( <= ( + T4 92 )  ( + T6 71 ) ) ( <= ( + T6 106 )( + T4 86 ) ) )
(or ( <= ( + T4 183 )  ( + T6 106 ) ) ( <= ( + T6 110 )( + T4 92 ) ) )
(or ( <= ( + T4 228 )  ( + T6 110 ) ) ( <= ( + T6 189 )( + T4 183 ) ) )
(or ( <= ( + T4 234 )  ( + T6 189 ) ) ( <= ( + T6 192 )( + T4 228 ) ) )
(or ( <= ( + T4 331 )  ( + T6 192 ) ) ( <= ( + T6 243 )( + T4 234 ) ) )
(or ( <= ( + T4 393 )  ( + T6 243 ) ) ( <= ( + T6 298 )( + T4 331 ) ) )
(or ( <= ( + T4 427 )  ( + T6 298 ) ) ( <= ( + T6 385 )( + T4 393 ) ) )
(or ( <= ( + T4 499 )  ( + T6 385 ) ) ( <= ( + T6 435 )( + T4 427 ) ) )
(or ( <= ( + T4 582 )  ( + T6 435 ) ) ( <= ( + T6 448 )( + T4 499 ) ) )
(or ( <= ( + T4 86 ) T7 ) ( <= ( + T7 56 ) T4 ) )
(or ( <= ( + T4 92 )  ( + T7 56 ) ) ( <= ( + T7 143 )( + T4 86 ) ) )
(or ( <= ( + T4 183 )  ( + T7 143 ) ) ( <= ( + T7 213 )( + T4 92 ) ) )
(or ( <= ( + T4 228 )  ( + T7 213 ) ) ( <= ( + T7 259 )( + T4 183 ) ) )
(or ( <= ( + T4 234 )  ( + T7 259 ) ) ( <= ( + T7 290 )( + T4 228 ) ) )
(or ( <= ( + T4 331 )  ( + T7 290 ) ) ( <= ( + T7 365 )( + T4 234 ) ) )
(or ( <= ( + T4 393 )  ( + T7 365 ) ) ( <= ( + T7 408 )( + T4 331 ) ) )
(or ( <= ( + T4 427 )  ( + T7 408 ) ) ( <= ( + T7 452 )( + T4 393 ) ) )
(or ( <= ( + T4 499 )  ( + T7 452 ) ) ( <= ( + T7 461 )( + T4 427 ) ) )
(or ( <= ( + T4 582 )  ( + T7 461 ) ) ( <= ( + T7 475 )( + T4 499 ) ) )
(or ( <= ( + T4 86 ) T8 ) ( <= ( + T8 27 ) T4 ) )
(or ( <= ( + T4 92 )  ( + T8 27 ) ) ( <= ( + T8 57 )( + T4 86 ) ) )
(or ( <= ( + T4 183 )  ( + T8 57 ) ) ( <= ( + T8 84 )( + T4 92 ) ) )
(or ( <= ( + T4 228 )  ( + T8 84 ) ) ( <= ( + T8 120 )( + T4 183 ) ) )
(or ( <= ( + T4 234 )  ( + T8 120 ) ) ( <= ( + T8 196 )( + T4 228 ) ) )
(or ( <= ( + T4 331 )  ( + T8 196 ) ) ( <= ( + T8 288 )( + T4 234 ) ) )
(or ( <= ( + T4 393 )  ( + T8 288 ) ) ( <= ( + T8 337 )( + T4 331 ) ) )
(or ( <= ( + T4 427 )  ( + T8 337 ) ) ( <= ( + T8 341 )( + T4 393 ) ) )
(or ( <= ( + T4 499 )  ( + T8 341 ) ) ( <= ( + T8 371 )( + T4 427 ) ) )
(or ( <= ( + T4 582 )  ( + T8 371 ) ) ( <= ( + T8 451 )( + T4 499 ) ) )
(or ( <= ( + T5 70 ) T6 ) ( <= ( + T6 71 ) T5 ) )
(or ( <= ( + T5 132 )  ( + T6 71 ) ) ( <= ( + T6 106 )( + T5 70 ) ) )
(or ( <= ( + T5 190 )  ( + T6 106 ) ) ( <= ( + T6 110 )( + T5 132 ) ) )
(or ( <= ( + T5 237 )  ( + T6 110 ) ) ( <= ( + T6 189 )( + T5 190 ) ) )
(or ( <= ( + T5 302 )  ( + T6 189 ) ) ( <= ( + T6 192 )( + T5 237 ) ) )
(or ( <= ( + T5 316 )  ( + T6 192 ) ) ( <= ( + T6 243 )( + T5 302 ) ) )
(or ( <= ( + T5 392 )  ( + T6 243 ) ) ( <= ( + T6 298 )( + T5 316 ) ) )
(or ( <= ( + T5 431 )  ( + T6 298 ) ) ( <= ( + T6 385 )( + T5 392 ) ) )
(or ( <= ( + T5 511 )  ( + T6 385 ) ) ( <= ( + T6 435 )( + T5 431 ) ) )
(or ( <= ( + T5 587 )  ( + T6 435 ) ) ( <= ( + T6 448 )( + T5 511 ) ) )
(or ( <= ( + T5 70 ) T7 ) ( <= ( + T7 56 ) T5 ) )
(or ( <= ( + T5 132 )  ( + T7 56 ) ) ( <= ( + T7 143 )( + T5 70 ) ) )
(or ( <= ( + T5 190 )  ( + T7 143 ) ) ( <= ( + T7 213 )( + T5 132 ) ) )
(or ( <= ( + T5 237 )  ( + T7 213 ) ) ( <= ( + T7 259 )( + T5 190 ) ) )
(or ( <= ( + T5 302 )  ( + T7 259 ) ) ( <= ( + T7 290 )( + T5 237 ) ) )
(or ( <= ( + T5 316 )  ( + T7 290 ) ) ( <= ( + T7 365 )( + T5 302 ) ) )
(or ( <= ( + T5 392 )  ( + T7 365 ) ) ( <= ( + T7 408 )( + T5 316 ) ) )
(or ( <= ( + T5 431 )  ( + T7 408 ) ) ( <= ( + T7 452 )( + T5 392 ) ) )
(or ( <= ( + T5 511 )  ( + T7 452 ) ) ( <= ( + T7 461 )( + T5 431 ) ) )
(or ( <= ( + T5 587 )  ( + T7 461 ) ) ( <= ( + T7 475 )( + T5 511 ) ) )
(or ( <= ( + T5 70 ) T8 ) ( <= ( + T8 27 ) T5 ) )
(or ( <= ( + T5 132 )  ( + T8 27 ) ) ( <= ( + T8 57 )( + T5 70 ) ) )
(or ( <= ( + T5 190 )  ( + T8 57 ) ) ( <= ( + T8 84 )( + T5 132 ) ) )
(or ( <= ( + T5 237 )  ( + T8 84 ) ) ( <= ( + T8 120 )( + T5 190 ) ) )
(or ( <= ( + T5 302 )  ( + T8 120 ) ) ( <= ( + T8 196 )( + T5 237 ) ) )
(or ( <= ( + T5 316 )  ( + T8 196 ) ) ( <= ( + T8 288 )( + T5 302 ) ) )
(or ( <= ( + T5 392 )  ( + T8 288 ) ) ( <= ( + T8 337 )( + T5 316 ) ) )
(or ( <= ( + T5 431 )  ( + T8 337 ) ) ( <= ( + T8 341 )( + T5 392 ) ) )
(or ( <= ( + T5 511 )  ( + T8 341 ) ) ( <= ( + T8 371 )( + T5 431 ) ) )
(or ( <= ( + T5 587 )  ( + T8 371 ) ) ( <= ( + T8 451 )( + T5 511 ) ) )
(or ( <= ( + T6 71 ) T7 ) ( <= ( + T7 56 ) T6 ) )
(or ( <= ( + T6 106 )  ( + T7 56 ) ) ( <= ( + T7 143 )( + T6 71 ) ) )
(or ( <= ( + T6 110 )  ( + T7 143 ) ) ( <= ( + T7 213 )( + T6 106 ) ) )
(or ( <= ( + T6 189 )  ( + T7 213 ) ) ( <= ( + T7 259 )( + T6 110 ) ) )
(or ( <= ( + T6 192 )  ( + T7 259 ) ) ( <= ( + T7 290 )( + T6 189 ) ) )
(or ( <= ( + T6 243 )  ( + T7 290 ) ) ( <= ( + T7 365 )( + T6 192 ) ) )
(or ( <= ( + T6 298 )  ( + T7 365 ) ) ( <= ( + T7 408 )( + T6 243 ) ) )
(or ( <= ( + T6 385 )  ( + T7 408 ) ) ( <= ( + T7 452 )( + T6 298 ) ) )
(or ( <= ( + T6 435 )  ( + T7 452 ) ) ( <= ( + T7 461 )( + T6 385 ) ) )
(or ( <= ( + T6 448 )  ( + T7 461 ) ) ( <= ( + T7 475 )( + T6 435 ) ) )
(or ( <= ( + T6 71 ) T8 ) ( <= ( + T8 27 ) T6 ) )
(or ( <= ( + T6 106 )  ( + T8 27 ) ) ( <= ( + T8 57 )( + T6 71 ) ) )
(or ( <= ( + T6 110 )  ( + T8 57 ) ) ( <= ( + T8 84 )( + T6 106 ) ) )
(or ( <= ( + T6 189 )  ( + T8 84 ) ) ( <= ( + T8 120 )( + T6 110 ) ) )
(or ( <= ( + T6 192 )  ( + T8 120 ) ) ( <= ( + T8 196 )( + T6 189 ) ) )
(or ( <= ( + T6 243 )  ( + T8 196 ) ) ( <= ( + T8 288 )( + T6 192 ) ) )
(or ( <= ( + T6 298 )  ( + T8 288 ) ) ( <= ( + T8 337 )( + T6 243 ) ) )
(or ( <= ( + T6 385 )  ( + T8 337 ) ) ( <= ( + T8 341 )( + T6 298 ) ) )
(or ( <= ( + T6 435 )  ( + T8 341 ) ) ( <= ( + T8 371 )( + T6 385 ) ) )
(or ( <= ( + T6 448 )  ( + T8 371 ) ) ( <= ( + T8 451 )( + T6 435 ) ) )
(or ( <= ( + T7 56 ) T8 ) ( <= ( + T8 27 ) T7 ) )
(or ( <= ( + T7 143 )  ( + T8 27 ) ) ( <= ( + T8 57 )( + T7 56 ) ) )
(or ( <= ( + T7 213 )  ( + T8 57 ) ) ( <= ( + T8 84 )( + T7 143 ) ) )
(or ( <= ( + T7 259 )  ( + T8 84 ) ) ( <= ( + T8 120 )( + T7 213 ) ) )
(or ( <= ( + T7 290 )  ( + T8 120 ) ) ( <= ( + T8 196 )( + T7 259 ) ) )
(or ( <= ( + T7 365 )  ( + T8 196 ) ) ( <= ( + T8 288 )( + T7 290 ) ) )
(or ( <= ( + T7 408 )  ( + T8 288 ) ) ( <= ( + T8 337 )( + T7 365 ) ) )
(or ( <= ( + T7 452 )  ( + T8 337 ) ) ( <= ( + T8 341 )( + T7 408 ) ) )
(or ( <= ( + T7 461 )  ( + T8 341 ) ) ( <= ( + T8 371 )( + T7 452 ) ) )
(or ( <= ( + T7 475 )  ( + T8 371 ) ) ( <= ( + T8 451 )( + T7 461 ) ) )
( <= ( + T1 457 ) Z)
( <= ( + T2 502 ) Z)
( <= ( + T3 490 ) Z)
( <= ( + T4 582 ) Z)
( <= ( + T5 587 ) Z)
( <= ( + T6 448 ) Z)
( <= ( + T7 475 ) Z)
( <= ( + T8 451 ) Z)
( >= T1 0 )
( >= T2 0 )
( >= T3 0 )
( >= T4 0 )
( >= T5 0 )
( >= T6 0 )
( >= T7 0 )
( >= T8 0 )
) )
)(=> $phi $goal))))